#######################################
### Exact MIP solver for the HHCRSP ###
#######################################
-- Instance file: new-instances/HHCRSP_50_10_22_1.6_C_RC.txt
-- Max threads: 4
-- Time limit: 999999 seconds
-- Use initial solution: No
Trivial flow violations prevented generating 6108 variables.
Model exported.
Version identifier: 20.1.0.0 | 2020-11-10 | 9bedb6d68
CPXPARAM_Threads                                 4
CPXPARAM_TimeLimit                               999999
Parallel mode: deterministic, using up to 4 threads for concurrent optimization:
 * Starting dual Simplex on 1 thread...
 * Starting Barrier on 3 threads...
Tried aggregator 1 time.
LP Presolve eliminated 1344 rows and 370 columns.
Reduced LP has 6552 rows, 6317 columns, and 55084 nonzeros.
Presolve time = 0.03 sec. (15.96 ticks)
Symmetry aggregator did 6431 additional substitutions.
Initializing dual steep norms . . .

Iteration log . . .
Iteration:     1   Dual objective     =             1.333333
Iteration:   174   Dual objective     =           124.339127

Dual crossover.
  Dual:  Fixing 86 variables.
       85 DMoves:  Infeasibility  2.14273560e-14  Objective  1.24353376e+02
        0 DMoves:  Infeasibility  1.21014318e-14  Objective  1.24353376e+02
  Dual:  Pushed 5, exchanged 81.
  Primal:  Fixing 38 variables.
       37 PMoves:  Infeasibility  4.99600361e-16  Objective  1.24353376e+02
        0 PMoves:  Infeasibility  5.55111512e-16  Objective  1.24353376e+02
  Primal:  Pushed 20, exchanged 18.

Dual simplex solved model.


Solution status from MIP model:
-- Processing time: 0.059 sec.
-- Memory used: 72.6875 MB
-- Best bound: inf
-- Obj value: 124.353
-- Gap: inf%
-- Total distance: 373.06
-- Total tardiness: 0
-- Largest tardiness: 0
